SPARKNaCl/why3-z3/sparknacl-sign.adb_642_22_index_check4_1.smt2
;; produced by z3_gnatprove.drv ;;
(set-info :smt-lib-version 2.5)
(set-info :source |VC generated by SPARK 2014|)
(set-info :category industrial)
(set-info :status unknown)
;;; generated by SMT-LIB2 driver
;;; SMT-LIB2 driver: bit-vectors, common part
;;; SMT-LIB2: integer arithmetic
(define-fun __cdiv ((x Int) (y Int)) Int (ite (>= x 0) (div x y) (- (div (- x) y))))
(define-fun __cmod ((x Int) (y Int)) Int (ite (>= x 0) (mod x y) (- (mod (- x) y))))
(declare-datatypes ()
  ((int__ref (int__refqtmk (int__content Int)))))

;; "mod"
(define-fun mod1 ((x Int) (y Int)) Int
  (ite (<= 0 y) (mod x y) (- (mod (- x) y))))

(declare-sort l_limb 0)

;; "l_limb'int"
(declare-fun l_limbqtint (l_limb) Int)

;; "l_limb'axiom"
(assert
  (forall ((i l_limb)) (and (<= 0 (l_limbqtint i)) (<= (l_limbqtint i) 249))))

;; "in_range"
(define-fun in_range ((x Int)) Bool
  (and (<= 0 x) (<= x 249)))

;; "to_rep"
(define-fun to_rep ((x l_limb)) Int
  (l_limbqtint x))

;; "of_rep"
(declare-fun of_rep (Int) l_limb)

;; "inversion_axiom"
(assert
  (forall ((x l_limb)) (! (= (of_rep (to_rep x)) x) :pattern ((to_rep x)) )))

;; "range_axiom"
(assert
  (forall ((x l_limb)) (! (in_range (to_rep x)) :pattern ((to_rep x)) )))

;; "coerce_axiom"
(assert
  (forall ((x Int))
    (! (=> (in_range x) (= (to_rep (of_rep x)) x)) :pattern ((to_rep
                                                               (of_rep x))) )))

(declare-sort map1 0)

;; "has_bounds"
(declare-fun has_bounds (map1
  Int
  Int) Bool)

;; "get"
(declare-fun get (map1
  Int) l_limb)

(declare-const l map1)

(declare-sort xl_limb 0)

;; "xl_limb'int"
(declare-fun xl_limbqtint (xl_limb) Int)

;; "xl_limb'axiom"
(assert
  (forall ((i xl_limb))
    (and
      (<= (- 33299444949360) (xl_limbqtint i))
      (<= (xl_limbqtint i) 33299444949360))))

;; "in_range"
(define-fun in_range1 ((x Int)) Bool
  (and (<= (- 33299444949360) x) (<= x 33299444949360)))

;; "to_rep"
(define-fun to_rep1 ((x xl_limb)) Int
  (xl_limbqtint x))

;; "of_rep"
(declare-fun of_rep1 (Int) xl_limb)

;; "inversion_axiom"
(assert
  (forall ((x xl_limb))
    (! (= (of_rep1 (to_rep1 x)) x) :pattern ((to_rep1 x)) )))

;; "range_axiom"
(assert
  (forall ((x xl_limb)) (! (in_range1 (to_rep1 x)) :pattern ((to_rep1 x)) )))

;; "coerce_axiom"
(assert
  (forall ((x Int))
    (! (=> (in_range1 x) (= (to_rep1 (of_rep1 x)) x)) :pattern ((to_rep1
                                                                  (of_rep1 x))) )))

(declare-sort map2 0)

(declare-datatypes ()
  ((map__ref (map__refqtmk (map__content map2)))))

;; "has_bounds"
(declare-fun has_bounds1 (map2
  Int
  Int) Bool)

;; "get"
(declare-fun get1 (map2
  Int) xl_limb)

;; "set"
(declare-fun set (map2
  Int
  xl_limb) map2)

;; "set_eq"
(assert
  (forall ((a map2) (i Int) (v xl_limb))
    (! (= (get1 (set a i v) i) v) :pattern ((set a i v)) )))

;; "set_neq"
(assert
  (forall ((a map2) (i Int) (v xl_limb))
    (! (forall ((j Int))
         (! (=> (not (= i j)) (= (get1 (set a i v) j) (get1 a j))) :pattern (
         (get1
           a
           j)) :pattern ((get1 (set a i v) j)) )) :pattern ((set a i v)) )))

;; "set_has_bounds"
(assert
  (forall ((a map2) (i Int) (f Int) (l1 Int) (v xl_limb))
    (! (=>
         (and (<= f i) (<= i l1))
         (=> (has_bounds1 a f l1) (has_bounds1 (set a i v) f l1))) :pattern (
    (has_bounds1
      (set a i v)
      f
      l1)) )))

(declare-sort byte 0)

;; "to_rep"
(declare-fun to_rep2 (byte) (_ BitVec 8))

;; "of_rep"
(declare-fun of_rep2 ((_ BitVec 8)) byte)

;; "inversion_axiom"
(assert
  (forall ((x byte)) (! (= (of_rep2 (to_rep2 x)) x) :pattern ((to_rep2 x)) )))

;; "range_axiom"
(assert true)

;; "coerce_axiom"
(assert
  (forall ((x (_ BitVec 8)))
    (! (= (to_rep2 (of_rep2 x)) x) :pattern ((to_rep2 (of_rep2 x))) )))

(declare-sort map3 0)

(declare-datatypes ()
  ((map__ref1 (map__refqtmk1 (map__content1 map3)))))

;; "has_bounds"
(declare-fun has_bounds2 (map3
  Int
  Int) Bool)

;; "power"
(declare-fun power (Int
  Int) Int)

;; "Power_0"
(assert (forall ((x Int)) (= (power x 0) 1)))

;; "Power_s"
(assert
  (forall ((x Int) (n Int))
    (=> (<= 0 n) (= (power x (+ n 1)) (* x (power x n))))))

;; "Power_s_alt"
(assert
  (forall ((x Int) (n Int))
    (=> (< 0 n) (= (power x n) (* x (power x (- n 1)))))))

;; "Power_1"
(assert (forall ((x Int)) (= (power x 1) x)))

;; "Power_sum"
(assert
  (forall ((x Int) (n Int) (m Int))
    (=>
      (<= 0 n)
      (=> (<= 0 m) (= (power x (+ n m)) (* (power x n) (power x m)))))))

;; "Power_mult"
(assert
  (forall ((x Int) (n Int) (m Int))
    (=> (<= 0 n) (=> (<= 0 m) (= (power x (* n m)) (power (power x n) m))))))

;; "Power_comm1"
(assert
  (forall ((x Int) (y Int))
    (=>
      (= (* x y) (* y x))
      (forall ((n Int))
        (=> (<= 0 n) (= (* (power x n) y) (* y (power x n))))))))

;; "Power_comm2"
(assert
  (forall ((x Int) (y Int))
    (=>
      (= (* x y) (* y x))
      (forall ((n Int))
        (=> (<= 0 n) (= (power (* x y) n) (* (power x n) (power y n))))))))

;; "Power_non_neg"
(assert
  (forall ((x Int) (y Int)) (=> (and (<= 0 x) (<= 0 y)) (<= 0 (power x y)))))

;; "Power_pos"
(assert
  (forall ((x Int) (y Int)) (=> (and (< 0 x) (<= 0 y)) (< 0 (power x y)))))

;; "Power_monotonic"
(assert
  (forall ((x Int) (n Int) (m Int))
    (=> (and (< 0 x) (and (<= 0 n) (<= n m))) (<= (power x n) (power x m)))))

;; "shift_right_arithmetic"
(define-fun shift_right_arithmetic ((x Int) (n Int) (us Int)) Int
  (ite (< x 0) (- (__cdiv (+ x 1) (power 2 n)) 1) (__cdiv x (power 2 n))))

;; "in_range"
(define-fun in_range2 ((x Int)) Bool
  (and (<= (- 9223372036854775808) x) (<= x 9223372036854775807)))

;; "asr_8"
(declare-fun asr_8 (Int) Int)

;; "asr_8__function_guard"
(declare-fun asr_8__function_guard (Int
  Int) Bool)

;; "asr_4"
(declare-fun asr_4 (Int) Int)

;; "asr_4__function_guard"
(declare-fun asr_4__function_guard (Int
  Int) Bool)

;; "in_range"
(define-fun in_range3 ((x Int)) Bool
  (and (<= (- 9223372036854775808) x) (<= x 9223372036854775807)))

;; "in_range"
(define-fun in_range4 ((x Int)) Bool
  (and (<= 0 x) (<= x 255)))

;; "ada___sparknacl__sign__l__aggregate_def"
(declare-fun ada___sparknacl__sign__l__aggregate_def (Int
  Int
  Int
  Int
  Int
  Int
  Int
  Int
  Int
  Int
  Int
  Int
  Int
  Int
  Int
  Int
  Int
  Int
  Int
  Int
  Int
  Int
  Int
  Int
  Int
  Int
  Int
  Int
  Int
  Int
  Int
  Int) map1)

;; "in_range"
(define-fun in_range5 ((x Int)) Bool
  (and (<= (- 129) x) (<= x 128)))

;; "in_range"
(define-fun in_range6 ((x Int)) Bool
  (and (<= (- 128) x) (<= x 127)))

;; "in_range"
(define-fun in_range7 ((x Int)) Bool
  (and (<= (- 9) x) (<= x 9)))

;; "l__def_axiom"
(assert
  (= l (let ((temp___372 (ada___sparknacl__sign__l__aggregate_def
                           237
                           211
                           245
                           92
                           26
                           99
                           18
                           88
                           214
                           156
                           247
                           162
                           222
                           249
                           222
                           20
                           0
                           0
                           0
                           0
                           0
                           0
                           0
                           0
                           0
                           0
                           0
                           0
                           0
                           0
                           0
                           16)))
         (let ((temp___373 temp___372)) temp___373))))

(declare-const rliteral l_limb)

;; "rliteral_axiom"
(assert (= (l_limbqtint rliteral) 237))

(declare-const rliteral1 l_limb)

;; "rliteral_axiom"
(assert (= (l_limbqtint rliteral1) 211))

(declare-const rliteral2 l_limb)

;; "rliteral_axiom"
(assert (= (l_limbqtint rliteral2) 245))

(declare-const rliteral3 l_limb)

;; "rliteral_axiom"
(assert (= (l_limbqtint rliteral3) 92))

(declare-const rliteral4 l_limb)

;; "rliteral_axiom"
(assert (= (l_limbqtint rliteral4) 26))

(declare-const rliteral5 l_limb)

;; "rliteral_axiom"
(assert (= (l_limbqtint rliteral5) 99))

(declare-const rliteral6 l_limb)

;; "rliteral_axiom"
(assert (= (l_limbqtint rliteral6) 18))

(declare-const rliteral7 l_limb)

;; "rliteral_axiom"
(assert (= (l_limbqtint rliteral7) 88))

(declare-const rliteral8 l_limb)

;; "rliteral_axiom"
(assert (= (l_limbqtint rliteral8) 214))

(declare-const rliteral9 l_limb)

;; "rliteral_axiom"
(assert (= (l_limbqtint rliteral9) 156))

(declare-const rliteral10 l_limb)

;; "rliteral_axiom"
(assert (= (l_limbqtint rliteral10) 247))

(declare-const rliteral11 l_limb)

;; "rliteral_axiom"
(assert (= (l_limbqtint rliteral11) 162))

(declare-const rliteral12 l_limb)

;; "rliteral_axiom"
(assert (= (l_limbqtint rliteral12) 222))

(declare-const rliteral13 l_limb)

;; "rliteral_axiom"
(assert (= (l_limbqtint rliteral13) 249))

(declare-const rliteral14 l_limb)

;; "rliteral_axiom"
(assert (= (l_limbqtint rliteral14) 20))

(declare-const rliteral15 l_limb)

;; "rliteral_axiom"
(assert (= (l_limbqtint rliteral15) 0))

(declare-const rliteral16 l_limb)

;; "rliteral_axiom"
(assert (= (l_limbqtint rliteral16) 16))

;; "def_axiom"
(assert
  (forall ((temp___337 Int) (temp___338 Int) (temp___339 Int) (temp___340 Int) (temp___341 Int) (temp___342 Int) (temp___343 Int) (temp___344 Int) (temp___345 Int) (temp___346 Int) (temp___347 Int) (temp___348 Int) (temp___349 Int) (temp___350 Int) (temp___351 Int) (temp___352 Int) (temp___353 Int) (temp___354 Int) (temp___355 Int) (temp___356 Int) (temp___357 Int) (temp___358 Int) (temp___359 Int) (temp___360 Int) (temp___361 Int) (temp___362 Int) (temp___363 Int) (temp___364 Int) (temp___365 Int) (temp___366 Int) (temp___367 Int) (temp___368 Int))
    (let ((temp___369 (ada___sparknacl__sign__l__aggregate_def
                        temp___337
                        temp___338
                        temp___339
                        temp___340
                        temp___341
                        temp___342
                        temp___343
                        temp___344
                        temp___345
                        temp___346
                        temp___347
                        temp___348
                        temp___349
                        temp___350
                        temp___351
                        temp___352
                        temp___353
                        temp___354
                        temp___355
                        temp___356
                        temp___357
                        temp___358
                        temp___359
                        temp___360
                        temp___361
                        temp___362
                        temp___363
                        temp___364
                        temp___365
                        temp___366
                        temp___367
                        temp___368)))
      (and
        (and
          (and
            (= (get temp___369 0) rliteral)
            (= (get temp___369 1) rliteral1))
          (and
            (and
              (and
                (and
                  (and
                    (= (get temp___369 2) rliteral2)
                    (= (get temp___369 3) rliteral3))
                  (and
                    (= (get temp___369 4) rliteral4)
                    (= (get temp___369 5) rliteral5)))
                (and
                  (and
                    (= (get temp___369 6) rliteral6)
                    (= (get temp___369 7) rliteral7))
                  (and
                    (= (get temp___369 8) rliteral8)
                    (= (get temp___369 9) rliteral9))))
              (and
                (and
                  (and
                    (= (get temp___369 10) rliteral10)
                    (= (get temp___369 11) rliteral11))
                  (and
                    (= (get temp___369 12) rliteral12)
                    (= (get temp___369 13) rliteral13)))
                (and
                  (and
                    (= (get temp___369 14) rliteral12)
                    (= (get temp___369 15) rliteral14))
                  (= (get temp___369 16) rliteral15))))
            (and
              (and
                (and
                  (and
                    (= (get temp___369 17) rliteral15)
                    (= (get temp___369 18) rliteral15))
                  (and
                    (= (get temp___369 19) rliteral15)
                    (= (get temp___369 20) rliteral15)))
                (and
                  (and
                    (= (get temp___369 21) rliteral15)
                    (= (get temp___369 22) rliteral15))
                  (and
                    (= (get temp___369 23) rliteral15)
                    (= (get temp___369 24) rliteral15))))
              (and
                (and
                  (and
                    (= (get temp___369 25) rliteral15)
                    (= (get temp___369 26) rliteral15))
                  (and
                    (= (get temp___369 27) rliteral15)
                    (= (get temp___369 28) rliteral15)))
                (and
                  (and
                    (= (get temp___369 29) rliteral15)
                    (= (get temp___369 30) rliteral15))
                  (= (get temp___369 31) rliteral16))))))
        (=>
          (and
            (and (and (<= 0 0) (<= 0 31)) (and (<= 0 1) (<= 1 31)))
            (and
              (and
                (and
                  (and
                    (and (and (<= 0 2) (<= 2 31)) (and (<= 0 3) (<= 3 31)))
                    (and (and (<= 0 4) (<= 4 31)) (and (<= 0 5) (<= 5 31))))
                  (and
                    (and (and (<= 0 6) (<= 6 31)) (and (<= 0 7) (<= 7 31)))
                    (and (and (<= 0 8) (<= 8 31)) (and (<= 0 9) (<= 9 31)))))
                (and
                  (and
                    (and
                      (and (<= 0 10) (<= 10 31))
                      (and (<= 0 11) (<= 11 31)))
                    (and
                      (and (<= 0 12) (<= 12 31))
                      (and (<= 0 13) (<= 13 31))))
                  (and
                    (and
                      (and (<= 0 14) (<= 14 31))
                      (and (<= 0 15) (<= 15 31)))
                    (and (<= 0 16) (<= 16 31)))))
              (and
                (and
                  (and
                    (and
                      (and (<= 0 17) (<= 17 31))
                      (and (<= 0 18) (<= 18 31)))
                    (and
                      (and (<= 0 19) (<= 19 31))
                      (and (<= 0 20) (<= 20 31))))
                  (and
                    (and
                      (and (<= 0 21) (<= 21 31))
                      (and (<= 0 22) (<= 22 31)))
                    (and
                      (and (<= 0 23) (<= 23 31))
                      (and (<= 0 24) (<= 24 31)))))
                (and
                  (and
                    (and
                      (and (<= 0 25) (<= 25 31))
                      (and (<= 0 26) (<= 26 31)))
                    (and
                      (and (<= 0 27) (<= 27 31))
                      (and (<= 0 28) (<= 28 31))))
                  (and
                    (and
                      (and (<= 0 29) (<= 29 31))
                      (and (<= 0 30) (<= 30 31)))
                    (and (<= 0 31) (<= 31 31)))))))
          (has_bounds temp___369 0 31))))))

(declare-const xl map2)

(declare-const r map3)

(declare-const carry Int)

(declare-const s3c Int)

;; "s3c'unused"
(define-fun s3cqtunused () int__ref
  (int__refqtmk s3c))

;; "carry'unused"
(define-fun carryqtunused () int__ref
  (int__refqtmk carry))

;; "r'unused"
(define-fun rqtunused () map__ref1
  (map__refqtmk1 r))

;; "xl'unused"
(define-fun xlqtunused () map__ref
  (map__refqtmk xl))

;; "Assume"
(assert (has_bounds l 0 31))

(declare-const temp___2736 map1)

;; "H"
(assert (= (get temp___2736 0) rliteral))

;; "H"
(assert (= (get temp___2736 1) rliteral1))

;; "H"
(assert (= (get temp___2736 2) rliteral2))

;; "H"
(assert (= (get temp___2736 3) rliteral3))

;; "H"
(assert (= (get temp___2736 4) rliteral4))

;; "H"
(assert (= (get temp___2736 5) rliteral5))

;; "H"
(assert (= (get temp___2736 6) rliteral6))

;; "H"
(assert (= (get temp___2736 7) rliteral7))

;; "H"
(assert (= (get temp___2736 8) rliteral8))

;; "H"
(assert (= (get temp___2736 9) rliteral9))

;; "H"
(assert (= (get temp___2736 10) rliteral10))

;; "H"
(assert (= (get temp___2736 11) rliteral11))

;; "H"
(assert (= (get temp___2736 12) rliteral12))

;; "H"
(assert (= (get temp___2736 13) rliteral13))

;; "H"
(assert (= (get temp___2736 14) rliteral12))

;; "H"
(assert (= (get temp___2736 15) rliteral14))

;; "H"
(assert (= (get temp___2736 16) rliteral15))

;; "H"
(assert (= (get temp___2736 17) rliteral15))

;; "H"
(assert (= (get temp___2736 18) rliteral15))

;; "H"
(assert (= (get temp___2736 19) rliteral15))

;; "H"
(assert (= (get temp___2736 20) rliteral15))

;; "H"
(assert (= (get temp___2736 21) rliteral15))

;; "H"
(assert (= (get temp___2736 22) rliteral15))

;; "H"
(assert (= (get temp___2736 23) rliteral15))

;; "H"
(assert (= (get temp___2736 24) rliteral15))

;; "H"
(assert (= (get temp___2736 25) rliteral15))

;; "H"
(assert (= (get temp___2736 26) rliteral15))

;; "H"
(assert (= (get temp___2736 27) rliteral15))

;; "H"
(assert (= (get temp___2736 28) rliteral15))

;; "H"
(assert (= (get temp___2736 29) rliteral15))

;; "H"
(assert (= (get temp___2736 30) rliteral15))

;; "H"
(assert (= (get temp___2736 31) rliteral16))

;; "H"
(assert (has_bounds temp___2736 0 31))

;; "H"
(assert
  (= temp___2736 (ada___sparknacl__sign__l__aggregate_def
                   237
                   211
                   245
                   92
                   26
                   99
                   18
                   88
                   214
                   156
                   247
                   162
                   222
                   249
                   222
                   20
                   0
                   0
                   0
                   0
                   0
                   0
                   0
                   0
                   0
                   0
                   0
                   0
                   0
                   0
                   0
                   16)))

;; "ada___sparknacl__sign__l__aggregate_def'result'unused"
(define-fun ada___sparknacl__sign__l__aggregate_defqtresultqtunused () map1
  temp___2736)

;; "Assume"
(assert (= temp___2736 l))

;; "Assume"
(assert (has_bounds1 xl 0 63))

;; "Assume"
(assert (has_bounds2 r 0 31))

;; "Assume"
(assert
  (and
    (and
      (forall ((k Int))
        (=> (and (<= 0 k) (<= k 19)) (in_range6 (to_rep1 (get1 xl k)))))
      (forall ((k Int))
        (=> (and (<= 20 k) (<= k 31)) (in_range5 (to_rep1 (get1 xl k))))))
    (forall ((k Int))
      (=> (and (<= 32 k) (<= k 63)) (= (to_rep1 (get1 xl k)) 0)))))

;; "Assume"
(assert true)

;; "Assume"
(assert (in_range7 carry))

(declare-const carry1 Int)

;; "carry'unused"
(define-fun carryqtunused1 () int__ref
  (int__refqtmk carry1))

;; "H"
(assert (= carry1 0))

(declare-const j Int)

;; "j'unused"
(define-fun jqtunused () int__ref
  (int__refqtmk j))

;; "H"
(assert (= j 0))

;; "int__content'result'unused"
(define-fun int__contentqtresultqtunused () Int
  j)

;; "o"
(define-fun o () Bool
  (ite (<= j 31) true false))

;; "infix <='result'unused"
(define-fun infix_lseqqtresultqtunused () Bool
  o)

;; "int__content'result'unused"
(define-fun int__contentqtresultqtunused1 () Int
  j)

;; "o"
(define-fun o1 () Bool
  (ite (<= 0 j) true false))

;; "infix <='result'unused"
(define-fun infix_lseqqtresultqtunused1 () Bool
  o1)

;; "o"
(define-fun o2 () Bool
  (and o1 o))

;; "andb'result'unused"
(define-fun andbqtresultqtunused () Bool
  o2)

;; "H"
(assert (= o2 true))

;; "temp___loop_entry_2642'unused"
(define-fun temp___loop_entry_2642qtunused () map2
  xl)

;; "map__content'result'unused"
(define-fun map__contentqtresultqtunused () map2
  xl)

;; "temp___loop_entry_2633'unused"
(define-fun temp___loop_entry_2633qtunused () Int
  carry1)

;; "int__content'result'unused"
(define-fun int__contentqtresultqtunused2 () Int
  carry1)

;; "temp___loop_entry_2631'unused"
(define-fun temp___loop_entry_2631qtunused () map2
  xl)

;; "map__content'result'unused"
(define-fun map__contentqtresultqtunused1 () map2
  xl)

;; "Assert"
(assert (in_range5 (to_rep1 (get1 xl 31))))

;; "int__content'result'unused"
(define-fun int__contentqtresultqtunused3 () Int
  j)

;; "o"
(define-fun o3 () l_limb
  (get l j))

;; "get'result'unused"
(define-fun getqtresultqtunused () l_limb
  o3)

(declare-const o4 Int)

;; "Ensures"
(assert (= (to_rep o3) o4))

;; "to_rep'result'unused"
(define-fun to_repqtresultqtunused () Int
  o4)

;; "map__content'result'unused"
(define-fun map__contentqtresultqtunused2 () map2
  xl)

;; "o"
(define-fun o5 () xl_limb
  (get1 xl 31))

;; "get'result'unused"
(define-fun getqtresultqtunused1 () xl_limb
  o5)

(declare-const o6 Int)

;; "Ensures"
(assert (= (to_rep1 o5) o6))

;; "to_rep'result'unused"
(define-fun to_repqtresultqtunused1 () Int
  o6)

;; "o"
(define-fun o7 () Int
  (asr_4 o6))

;; "H"
(assert (asr_4__function_guard o7 o6))

;; "H"
(assert (in_range2 o7))

;; "H"
(assert (= o7 (shift_right_arithmetic o6 4 64)))

;; "H"
(assert
  (ite (<= 0 o6) (= o7 (__cdiv o6 16)) (= o7 (- (__cdiv (+ o6 1) 16) 1))))

;; "asr_4'result'unused"
(define-fun asr_4qtresultqtunused () Int
  o7)

;; "o"
(define-fun o8 () Int
  (* o7 o4))

;; "infix *'result'unused"
(define-fun infix_asqtresultqtunused () Int
  o8)

;; "Ensures"
(assert (in_range3 o8))

;; "range_check_'result'unused"
(define-fun range_check_qtresultqtunused () Int
  o8)

;; "int__content'result'unused"
(define-fun int__contentqtresultqtunused4 () Int
  carry1)

;; "o"
(define-fun o9 () Int
  (- carry1 o8))

;; "infix -'result'unused"
(define-fun infix_mnqtresultqtunused () Int
  o9)

;; "Ensures"
(assert (in_range3 o9))

;; "range_check_'result'unused"
(define-fun range_check_qtresultqtunused1 () Int
  o9)

;; "int__content'result'unused"
(define-fun int__contentqtresultqtunused5 () Int
  j)

;; "map__content'result'unused"
(define-fun map__contentqtresultqtunused3 () map2
  xl)

;; "o"
(define-fun o10 () xl_limb
  (get1 xl j))

;; "get'result'unused"
(define-fun getqtresultqtunused2 () xl_limb
  o10)

(declare-const o11 Int)

;; "Ensures"
(assert (= (to_rep1 o10) o11))

;; "to_rep'result'unused"
(define-fun to_repqtresultqtunused2 () Int
  o11)

;; "o"
(define-fun o12 () Int
  (+ o11 o9))

;; "infix +'result'unused"
(define-fun infix_plqtresultqtunused () Int
  o12)

;; "Ensures"
(assert (in_range3 o12))

;; "range_check_'result'unused"
(define-fun range_check_qtresultqtunused2 () Int
  o12)

;; "Ensures"
(assert (in_range1 o12))

;; "range_check_'result'unused"
(define-fun range_check_qtresultqtunused3 () Int
  o12)

(declare-const o13 xl_limb)

;; "Ensures"
(assert (= (to_rep1 o13) o12))

;; "of_rep'result'unused"
(define-fun of_repqtresultqtunused () xl_limb
  o13)

;; "int__content'result'unused"
(define-fun int__contentqtresultqtunused6 () Int
  j)

;; "map__content'result'unused"
(define-fun map__contentqtresultqtunused4 () map2
  xl)

;; "o"
(define-fun o14 () map2
  (set xl j o13))

;; "set'result'unused"
(define-fun setqtresultqtunused () map2
  o14)

(declare-const xl1 map2)

;; "xl'unused"
(define-fun xlqtunused1 () map__ref
  (map__refqtmk xl1))

;; "H"
(assert (= xl1 o14))

;; "Assert"
(assert (<= (- 2304) (to_rep1 (get1 xl1 j))))

;; "Assert"
(assert (<= (to_rep1 (get1 xl1 j)) 2559))

;; "int__content'result'unused"
(define-fun int__contentqtresultqtunused7 () Int
  j)

;; "map__content'result'unused"
(define-fun map__contentqtresultqtunused5 () map2
  xl1)

;; "o"
(define-fun o15 () xl_limb
  (get1 xl1 j))

;; "get'result'unused"
(define-fun getqtresultqtunused3 () xl_limb
  o15)

(declare-const o16 Int)

;; "Ensures"
(assert (= (to_rep1 o15) o16))

;; "to_rep'result'unused"
(define-fun to_repqtresultqtunused3 () Int
  o16)

;; "o"
(define-fun o17 () Int
  (asr_8 o16))

;; "H"
(assert (asr_8__function_guard o17 o16))

;; "H"
(assert (in_range2 o17))

;; "H"
(assert (= o17 (shift_right_arithmetic o16 8 64)))

;; "H"
(assert
  (ite (<= 0 o16)
    (= o17 (__cdiv o16 256))
    (= o17 (- (__cdiv (+ o16 1) 256) 1))))

;; "asr_8'result'unused"
(define-fun asr_8qtresultqtunused () Int
  o17)

;; "Ensures"
(assert (in_range7 o17))

;; "range_check_'result'unused"
(define-fun range_check_qtresultqtunused4 () Int
  o17)

(declare-const carry2 Int)

;; "H"
(assert (= carry2 o17))

;; "int__content'result'unused"
(define-fun int__contentqtresultqtunused8 () Int
  j)

;; "map__content'result'unused"
(define-fun map__contentqtresultqtunused6 () map2
  xl1)

;; "o"
(define-fun o18 () xl_limb
  (get1 xl1 j))

;; "get'result'unused"
(define-fun getqtresultqtunused4 () xl_limb
  o18)

(declare-const o19 Int)

;; "Ensures"
(assert (= (to_rep1 o18) o19))

;; "to_rep'result'unused"
(define-fun to_repqtresultqtunused4 () Int
  o19)

;; "o"
(define-fun o20 () Int
  (mod1 o19 256))

;; "mod_'result'unused"
(define-fun mod_qtresultqtunused () Int
  o20)

(declare-const o21 xl_limb)

;; "Ensures"
(assert (= (to_rep1 o21) o20))

;; "of_rep'result'unused"
(define-fun of_repqtresultqtunused1 () xl_limb
  o21)

;; "int__content'result'unused"
(define-fun int__contentqtresultqtunused9 () Int
  j)

;; "map__content'result'unused"
(define-fun map__contentqtresultqtunused7 () map2
  xl1)

;; "o"
(define-fun o22 () map2
  (set xl1 j o21))

;; "set'result'unused"
(define-fun setqtresultqtunused1 () map2
  o22)

(declare-const xl2 map2)

;; "xl'unused"
(define-fun xlqtunused2 () map__ref
  (map__refqtmk xl2))

;; "H"
(assert (= xl2 o22))

(declare-const usf Int)

(declare-const anyqtresultqtunused Int)

;; "H"
(assert (= anyqtresultqtunused usf))

(declare-const kqtunused Int)

;; "H"
(assert (= kqtunused usf))

(declare-const int__contentqtresultqtunused10 Int)

;; "H"
(assert (= int__contentqtresultqtunused10 j))

(declare-const o23 Bool)

;; "H"
(assert (= o23 (ite (<= usf j) true false)))

(declare-const infix_lseqqtresultqtunused2 Bool)

;; "H"
(assert (= infix_lseqqtresultqtunused2 o23))

(declare-const o24 Bool)

;; "H"
(assert (= o24 (ite (<= 0 usf) true false)))

(declare-const infix_lseqqtresultqtunused3 Bool)

;; "H"
(assert (= infix_lseqqtresultqtunused3 o24))

(declare-const andbqtresultqtunused1 Bool)

;; "H"
(assert (= andbqtresultqtunused1 (and o24 o23)))

;; "_f'unused"
(define-fun usfqtunused () Bool
  (ite (forall ((k Int))
         (=> (and (<= 0 k) (<= k j)) (in_range4 (to_rep1 (get1 xl2 k)))))
    true
    false))

;; "any'result'unused"
(define-fun anyqtresultqtunused1 () Bool
  (ite (forall ((k Int))
         (=> (and (<= 0 k) (<= k j)) (in_range4 (to_rep1 (get1 xl2 k)))))
    true
    false))

(declare-const xl3 map2)

(declare-const carry3 Int)

(declare-const j1 Int)

;; "j'unused"
(define-fun jqtunused1 () int__ref
  (int__refqtmk j1))

;; "carry'unused"
(define-fun carryqtunused2 () int__ref
  (int__refqtmk carry3))

;; "xl'unused"
(define-fun xlqtunused3 () map__ref
  (map__refqtmk xl3))

;; "LoopInvariant"
(assert
  (forall ((k Int))
    (=> (and (<= 0 k) (<= k j1)) (in_range4 (to_rep1 (get1 xl3 k))))))

;; "LoopInvariant"
(assert
  (forall ((k Int))
    (=>
      (and (<= (+ j1 1) k) (<= k 31))
      (= (to_rep1 (get1 xl3 k)) (to_rep1 (get1 xl k))))))

;; "LoopInvariant"
(assert
  (forall ((k Int))
    (=> (and (<= (+ j1 1) k) (<= k 31)) (in_range5 (to_rep1 (get1 xl3 k))))))

;; "LoopInvariant"
(assert
  (forall ((k Int))
    (=> (and (<= 32 k) (<= k 63)) (= (to_rep1 (get1 xl3 k)) 0))))

;; "Assume"
(assert
  (= (and (ite (and
                 (and
                   (has_bounds1 xl3 0 63)
                   (forall ((temp___2632 Int))
                     (=>
                       (and (<= 0 temp___2632) (<= temp___2632 63))
                       (=>
                         (or
                           (< 31 temp___2632)
                           (or (< temp___2632 0) (< j1 temp___2632)))
                         (= (get1 xl3 temp___2632) (get1 xl temp___2632))))))
                 (in_range7 carry3))
            true
            false) (ite (and (<= 0 j1) (<= j1 31)) true false)) true))

;; "int__content'result'unused"
(define-fun int__contentqtresultqtunused11 () Int
  j1)

;; "infix ='result'unused"
(define-fun infix_eqqtresultqtunused () Bool
  (ite (= j1 31) true false))

;; "H"
(assert (not (= j1 31)))

;; "int__content'result'unused"
(define-fun int__contentqtresultqtunused12 () Int
  j1)

;; "o"
(define-fun o25 () Int
  (+ j1 1))

;; "infix +'result'unused"
(define-fun infix_plqtresultqtunused1 () Int
  o25)

(declare-const j2 Int)

;; "j'unused"
(define-fun jqtunused2 () int__ref
  (int__refqtmk j2))

;; "H"
(assert (= j2 o25))

;; "Assert"
(assert (in_range5 (to_rep1 (get1 xl3 31))))

;; "int__content'result'unused"
(define-fun int__contentqtresultqtunused13 () Int
  j2)

;; "o"
(define-fun o26 () l_limb
  (get l j2))

;; "get'result'unused"
(define-fun getqtresultqtunused5 () l_limb
  o26)

(declare-const o27 Int)

;; "Ensures"
(assert (= (to_rep o26) o27))

;; "to_rep'result'unused"
(define-fun to_repqtresultqtunused5 () Int
  o27)

;; "map__content'result'unused"
(define-fun map__contentqtresultqtunused8 () map2
  xl3)

;; "o"
(define-fun o28 () xl_limb
  (get1 xl3 31))

;; "get'result'unused"
(define-fun getqtresultqtunused6 () xl_limb
  o28)

(declare-const o29 Int)

;; "Ensures"
(assert (= (to_rep1 o28) o29))

;; "to_rep'result'unused"
(define-fun to_repqtresultqtunused6 () Int
  o29)

;; "o"
(define-fun o30 () Int
  (asr_4 o29))

;; "H"
(assert (asr_4__function_guard o30 o29))

;; "H"
(assert (in_range2 o30))

;; "H"
(assert (= o30 (shift_right_arithmetic o29 4 64)))

;; "H"
(assert
  (ite (<= 0 o29)
    (= o30 (__cdiv o29 16))
    (= o30 (- (__cdiv (+ o29 1) 16) 1))))

;; "asr_4'result'unused"
(define-fun asr_4qtresultqtunused1 () Int
  o30)

;; "o"
(define-fun o31 () Int
  (* o30 o27))

;; "infix *'result'unused"
(define-fun infix_asqtresultqtunused1 () Int
  o31)

;; "Ensures"
(assert (in_range3 o31))

;; "range_check_'result'unused"
(define-fun range_check_qtresultqtunused5 () Int
  o31)

;; "int__content'result'unused"
(define-fun int__contentqtresultqtunused14 () Int
  carry3)

;; "o"
(define-fun o32 () Int
  (- carry3 o31))

;; "infix -'result'unused"
(define-fun infix_mnqtresultqtunused1 () Int
  o32)

;; "Ensures"
(assert (in_range3 o32))

;; "range_check_'result'unused"
(define-fun range_check_qtresultqtunused6 () Int
  o32)

;; "int__content'result'unused"
(define-fun int__contentqtresultqtunused15 () Int
  j2)

;; "map__content'result'unused"
(define-fun map__contentqtresultqtunused9 () map2
  xl3)

;; "o"
(define-fun o33 () xl_limb
  (get1 xl3 j2))

;; "get'result'unused"
(define-fun getqtresultqtunused7 () xl_limb
  o33)

(declare-const o34 Int)

;; "Ensures"
(assert (= (to_rep1 o33) o34))

;; "to_rep'result'unused"
(define-fun to_repqtresultqtunused7 () Int
  o34)

;; "o"
(define-fun o35 () Int
  (+ o34 o32))

;; "infix +'result'unused"
(define-fun infix_plqtresultqtunused2 () Int
  o35)

;; "Ensures"
(assert (in_range3 o35))

;; "range_check_'result'unused"
(define-fun range_check_qtresultqtunused7 () Int
  o35)

;; "Ensures"
(assert (in_range1 o35))

;; "range_check_'result'unused"
(define-fun range_check_qtresultqtunused8 () Int
  o35)

(declare-const o36 xl_limb)

;; "Ensures"
(assert (= (to_rep1 o36) o35))

;; "of_rep'result'unused"
(define-fun of_repqtresultqtunused2 () xl_limb
  o36)

;; "int__content'result'unused"
(define-fun int__contentqtresultqtunused16 () Int
  j2)

;; "map__content'result'unused"
(define-fun map__contentqtresultqtunused10 () map2
  xl3)

;; "o"
(define-fun o37 () map2
  (set xl3 j2 o36))

;; "set'result'unused"
(define-fun setqtresultqtunused2 () map2
  o37)

(declare-const xl4 map2)

;; "xl'unused"
(define-fun xlqtunused4 () map__ref
  (map__refqtmk xl4))

;; "H"
(assert (= xl4 o37))

;; "Assert"
(assert (<= (- 2304) (to_rep1 (get1 xl4 j2))))

;; "Assert"
(assert (<= (to_rep1 (get1 xl4 j2)) 2559))

;; "int__content'result'unused"
(define-fun int__contentqtresultqtunused17 () Int
  j2)

;; "map__content'result'unused"
(define-fun map__contentqtresultqtunused11 () map2
  xl4)

;; "o"
(define-fun o38 () xl_limb
  (get1 xl4 j2))

;; "get'result'unused"
(define-fun getqtresultqtunused8 () xl_limb
  o38)

(declare-const o39 Int)

;; "Ensures"
(assert (= (to_rep1 o38) o39))

;; "to_rep'result'unused"
(define-fun to_repqtresultqtunused8 () Int
  o39)

;; "o"
(define-fun o40 () Int
  (asr_8 o39))

;; "H"
(assert (asr_8__function_guard o40 o39))

;; "H"
(assert (in_range2 o40))

;; "H"
(assert (= o40 (shift_right_arithmetic o39 8 64)))

;; "H"
(assert
  (ite (<= 0 o39)
    (= o40 (__cdiv o39 256))
    (= o40 (- (__cdiv (+ o39 1) 256) 1))))

;; "asr_8'result'unused"
(define-fun asr_8qtresultqtunused1 () Int
  o40)

;; "Ensures"
(assert (in_range7 o40))

;; "range_check_'result'unused"
(define-fun range_check_qtresultqtunused9 () Int
  o40)

;; "int__content'result'unused"
(define-fun int__contentqtresultqtunused18 () Int
  j2)

;; "map__content'result'unused"
(define-fun map__contentqtresultqtunused12 () map2
  xl4)

;; "o"
(define-fun o41 () xl_limb
  (get1 xl4 j2))

;; "get'result'unused"
(define-fun getqtresultqtunused9 () xl_limb
  o41)

(declare-const o42 Int)

;; "Ensures"
(assert (= (to_rep1 o41) o42))

;; "to_rep'result'unused"
(define-fun to_repqtresultqtunused9 () Int
  o42)

;; "o"
(define-fun o43 () Int
  (mod1 o42 256))

;; "mod_'result'unused"
(define-fun mod_qtresultqtunused1 () Int
  o43)

(declare-const o44 xl_limb)

;; "Ensures"
(assert (= (to_rep1 o44) o43))

;; "of_rep'result'unused"
(define-fun of_repqtresultqtunused3 () xl_limb
  o44)

;; "int__content'result'unused"
(define-fun int__contentqtresultqtunused19 () Int
  j2)

;; "map__content'result'unused"
(define-fun map__contentqtresultqtunused13 () map2
  xl4)

;; "o"
(define-fun o45 () map2
  (set xl4 j2 o44))

;; "set'result'unused"
(define-fun setqtresultqtunused3 () map2
  o45)

(declare-const xl5 map2)

;; "xl'unused"
(define-fun xlqtunused5 () map__ref
  (map__refqtmk xl5))

;; "H"
(assert (= xl5 o45))

(declare-const usf1 Int)

(declare-const anyqtresultqtunused2 Int)

;; "H"
(assert (= anyqtresultqtunused2 usf1))

(declare-const kqtunused1 Int)

;; "H"
(assert (= kqtunused1 usf1))

(declare-const int__contentqtresultqtunused20 Int)

;; "H"
(assert (= int__contentqtresultqtunused20 j2))

(declare-const o46 Bool)

;; "H"
(assert (= o46 (ite (<= usf1 j2) true false)))

(declare-const infix_lseqqtresultqtunused4 Bool)

;; "H"
(assert (= infix_lseqqtresultqtunused4 o46))

(declare-const o47 Bool)

;; "H"
(assert (= o47 (ite (<= 0 usf1) true false)))

(declare-const infix_lseqqtresultqtunused5 Bool)

;; "H"
(assert (= infix_lseqqtresultqtunused5 o47))

(declare-const andbqtresultqtunused2 Bool)

;; "H"
(assert (= andbqtresultqtunused2 (and o47 o46)))

;; "_f'unused"
(define-fun usfqtunused1 () Bool
  (ite (forall ((k Int))
         (=> (and (<= 0 k) (<= k j2)) (in_range4 (to_rep1 (get1 xl5 k)))))
    true
    false))

;; "any'result'unused"
(define-fun anyqtresultqtunused3 () Bool
  (ite (forall ((k Int))
         (=> (and (<= 0 k) (<= k j2)) (in_range4 (to_rep1 (get1 xl5 k)))))
    true
    false))

(declare-const usf2 Int)

(declare-const anyqtresultqtunused4 Int)

;; "H"
(assert (= anyqtresultqtunused4 usf2))

(declare-const kqtunused2 Int)

;; "H"
(assert (= kqtunused2 usf2))

(declare-const o48 Bool)

;; "H"
(assert (= o48 (ite (<= usf2 31) true false)))

(declare-const infix_lseqqtresultqtunused6 Bool)

;; "H"
(assert (= infix_lseqqtresultqtunused6 o48))

(declare-const int__contentqtresultqtunused21 Int)

;; "H"
(assert (= int__contentqtresultqtunused21 j2))

(declare-const o49 Int)

;; "H"
(assert (= o49 (+ j2 1)))

(declare-const infix_plqtresultqtunused3 Int)

;; "H"
(assert (= infix_plqtresultqtunused3 o49))

(declare-const o50 Bool)

;; "H"
(assert (= o50 (ite (<= o49 usf2) true false)))

(declare-const infix_lseqqtresultqtunused7 Bool)

;; "H"
(assert (= infix_lseqqtresultqtunused7 o50))

(declare-const andbqtresultqtunused3 Bool)

;; "H"
(assert (= andbqtresultqtunused3 (and o50 o48)))

;; "_f'unused"
(define-fun usfqtunused2 () Bool
  (ite (forall ((k Int))
         (=>
           (and (<= (+ j2 1) k) (<= k 31))
           (= (to_rep1 (get1 xl5 k)) (to_rep1 (get1 xl k)))))
    true
    false))

;; "any'result'unused"
(define-fun anyqtresultqtunused5 () Bool
  (ite (forall ((k Int))
         (=>
           (and (<= (+ j2 1) k) (<= k 31))
           (= (to_rep1 (get1 xl5 k)) (to_rep1 (get1 xl k)))))
    true
    false))

(declare-const usf3 Int)

;; "any'result'unused"
(define-fun anyqtresultqtunused6 () Int
  usf3)

;; "k'unused"
(define-fun kqtunused3 () Int
  usf3)

;; "o"
(define-fun o51 () Bool
  (ite (<= usf3 31) true false))

;; "infix <='result'unused"
(define-fun infix_lseqqtresultqtunused8 () Bool
  o51)

;; "int__content'result'unused"
(define-fun int__contentqtresultqtunused22 () Int
  j2)

;; "o"
(define-fun o52 () Int
  (+ j2 1))

;; "infix +'result'unused"
(define-fun infix_plqtresultqtunused4 () Int
  o52)

;; "o"
(define-fun o53 () Bool
  (ite (<= o52 usf3) true false))

;; "infix <='result'unused"
(define-fun infix_lseqqtresultqtunused9 () Bool
  o53)

;; "o"
(define-fun o54 () Bool
  (and o53 o51))

;; "andb'result'unused"
(define-fun andbqtresultqtunused4 () Bool
  o54)

;; "H"
(assert (= o54 true))

;; Goal "def'vc"
;; File "sparknacl-sign.adb", line 322, characters 0-0
(assert
  (not (<= usf3 63)))

(check-sat)
